job_count = 30 ;
duration = [|38, 14, 16, 7|4, 24, 14, 8|28, 20, 13, 9|37, 3, 3, 6|35, 6, 17, 4|27, 17, 7, 3|8, 20, 2, 7|7, 18, 10, 4|36, 18, 9, 7|34, 13, 17, 6|34, 20, 6, 9|5, 25, 10, 4|17, 26, 2, 1|39, 5, 10, 4|13, 7, 16, 7|23, 9, 18, 9|24, 16, 10, 6|33, 10, 9, 7|15, 5, 19, 2|16, 15, 14, 3|4, 9, 4, 1|26, 25, 19, 6|12, 9, 9, 5|10, 6, 7, 7|20, 22, 9, 5|12, 27, 5, 1|17, 4, 14, 1|6, 6, 15, 3|20, 22, 13, 7|6, 20, 13, 3|] ;
machine_count = 4 ;
cost = [|14, 30, 36, 60|12, 30, 47, 51|17, 21, 40, 49|16, 36, 43, 68|18, 35, 47, 75|12, 24, 52, 64|12, 29, 45, 70|19, 36, 46, 60|10, 35, 38, 49|17, 22, 39, 72|11, 24, 30, 42|12, 25, 51, 77|15, 27, 44, 41|19, 33, 37, 69|14, 34, 38, 65|11, 39, 32, 47|17, 22, 57, 74|18, 26, 43, 66|10, 21, 32, 57|18, 28, 33, 48|14, 29, 41, 78|19, 28, 48, 66|11, 38, 41, 66|14, 28, 44, 74|12, 28, 32, 72|10, 33, 57, 49|15, 28, 59, 50|19, 34, 54, 50|12, 26, 49, 40|13, 29, 55, 73|] ;
deadline = [62, 62, 62, 62, 62, 62, 62, 62, 62, 62, 62, 62, 62, 62, 62, 62, 62, 62, 62, 62, 62, 62, 62, 62, 62, 62, 62, 62, 62, 62] ;
release = [0, 0, 0, 0, 0, 0, 0, 0, 0, 0, 0, 0, 0, 0, 0, 0, 0, 0, 0, 0, 0, 0, 0, 0, 0, 0, 0, 0, 0, 0] ;
resource = [|1, 1, 1, 1|4, 4, 4, 4|9, 9, 9, 9|6, 6, 6, 6|7, 7, 7, 7|2, 2, 2, 2|3, 3, 3, 3|9, 9, 9, 9|7, 7, 7, 7|9, 9, 9, 9|1, 1, 1, 1|2, 2, 2, 2|8, 8, 8, 8|3, 3, 3, 3|8, 8, 8, 8|4, 4, 4, 4|8, 8, 8, 8|3, 3, 3, 3|3, 3, 3, 3|5, 5, 5, 5|4, 4, 4, 4|7, 7, 7, 7|2, 2, 2, 2|1, 1, 1, 1|9, 9, 9, 9|8, 8, 8, 8|3, 3, 3, 3|3, 3, 3, 3|3, 3, 3, 3|7, 7, 7, 7|] ;
capacities = [10, 10, 10, 10] ;
